# Solution for model r3_t27_m7_9 Batch Number: 4
# Finished Task: 26 / 27
# Makespan: 931.0, Total Distance: 829.0, Total Time: 5.3463
# R O S F Batch
0 0 18 0.0 0.0 -1
1 1 14 0.0 0.0 -1
2 2 27 0.0 0.0 -1
3 0 4 440.0 467.0 1
4 0 9 521.0 560.0 1
5 0 24 285.0 316.0 0
6 2 20 828.0 864.0 3
7 1 13 692.0 729.0 2
8 2 15 527.0 556.0 2
9 0 12 596.0 631.0 2
10 2 26 692.0 720.0 3
11 1 29 603.0 638.0 2
12 0 21 694.0 733.0 2
13 1 -1 745.0 772.0 2
14 1 28 230.0 252.0 0
15 2 23 575.0 596.0 2
16 1 11 534.0 560.0 1
17 2 8 369.0 403.0 2
18 0 25 153.0 181.0 0
19 -1 -1 -1.0 -1.0 3
20 2 -1 903.0 931.0 3
21 0 22 833.0 864.0 3
22 0 -1 864.0 903.0 3
23 2 10 638.0 675.0 2
24 0 3 356.0 378.0 1
25 0 5 230.0 252.0 0
26 2 6 756.0 790.0 3
27 2 17 330.0 356.0 1
28 1 16 299.0 330.0 0
29 1 7 651.0 677.0 2
